Output/Exact/Random_020_03_5.lp.out
CPU Time for Parsing input: 0.002196s (0.002196s total since program start)
CPU Time for solving: 0.135916s (0.138112s total since program start)

Value of objective function: 37.00000000
